
  22   10
  10   10   10   10   10   10   10   10   10   10

   0   0   0   0   0   0   0   0   0   0   0   5 2 3 4 6 7 
   2  10  10  10  10  10  10  10  10  10  10   3 11 8 5 
  10  10  10  10  10  10  10  10  10  10  10   4 12 11 10 8 
   9  10  10  10  10  10  10  10  10  10  10   2 11 5 
   1  10  10  10  10  10  10  10  10  10  10   3 17 12 10 
   3  10  10  10  10  10  10  10  10  10  10   3 17 11 10 
   7  10  10  10  10  10  10  10  10  10  10   3 15 10 9 
   9  10  10  10  10  10  10  10  10  10  10   4 17 16 15 13 
  10  10  10  10  10  10  10  10  10  10  10   3 17 16 13 
   4  10  10  10  10  10  10  10  10  10  10   3 20 16 13 
   8  10  10  10  10  10  10  10  10  10  10   4 21 20 18 15 
   7  10  10  10  10  10  10  10  10  10  10   3 20 18 15 
   5  10  10  10  10  10  10  10  10  10  10   2 19 14 
   6  10  10  10  10  10  10  10  10  10  10   1 18 
   9  10  10  10  10  10  10  10  10  10  10   1 19 
   9  10  10  10  10  10  10  10  10  10  10   1 21 
   7  10  10  10  10  10  10  10  10  10  10   1 20 
  10  10  10  10  10  10  10  10  10  10  10   1 22
   3  10  10  10  10  10  10  10  10  10  10   1 22
   2  10  10  10  10  10  10  10  10  10  10   1 22
   7  10  10  10  10  10  10  10  10  10  10   1 22
   0   0   0   0   0   0   0   0   0   0   0   0 
